n_machines = 10;
n_resources = 20;
n_jobs = 100;
horizon = 5140;
LB = 514;
n_jobs_per_resource = [5, 5, 5, 5, 5, 5, 5, 5, 5, 5, 5, 5, 5, 5, 5, 5, 5, 5, 5, 5];
duration = [31, 82, 46, 17, 20, 48, 56, 52, 10, 51, 30, 78, 32, 20, 26, 18, 73, 14, 53, 82, 33, 26, 35, 58, 40, 82, 51, 69, 29, 12, 38, 53, 37, 44, 51, 33, 71, 60, 62, 28, 45, 48, 50, 64, 53, 23, 81, 73, 69, 5, 43, 53, 76, 5, 34, 77, 97, 78, 16, 17, 75, 28, 80, 77, 16, 94, 63, 12, 24, 51, 52, 67, 65, 81, 78, 31, 25, 65, 37, 47, 88, 69, 93, 57, 60, 85, 67, 88, 19, 94, 19, 81, 94, 88, 95, 46, 84, 7, 77, 3]